Traveling Salesman Problem/TSP_generados/Aleatorio1621103506_15.tsp
NAME: Aleatorio1621103506_15.tsp
COMMENT: Randomly generated scenario
TYPE: TSP
DIMENSION: 15
EDGE_WEIGHT_TYPE: ATT
NODE_COORD_SECTION
1 19.79 36.66
2 35.43 35.77
3 46.24 4.62
4 6.21 38.39
5 46.43 16.69
6 32.35 7.88
7 14.09 32.88
8 27.84 35.02
9 35.89 5.5
10 45.12 22.7
11 34.98 6.06
12 44.8 17.81
13 5.11 44.33
14 45.44 14.71
15 42.51 5.05
