Traveling Salesman Problem/TSP_generados/Aleatorio1621103506_15.opt.tour
NAME: Aleatorio1621103506_15.opt.tour
COMMENT: Optimal solution for Aleatorio1621103506_15 (129.16066690139584)
TYPE: TOUR
DIMENSION: 15
TOUR_SECTION
1 8 2 10 12 5 14 3 15 9 11 6 7 4 13
-1
EOF
